p cnf 10 43
5 3 -4 0
-2 -10 -7 0
-1 10 -3 0
10 4 -1 0
8 10 9 0
-1 4 2 0
-7 -3 -6 0
-9 -5 2 0
1 9 -4 0
6 -5 10 0
-6 -2 -1 0
-1 8 -10 0
-10 8 1 0
-7 5 -3 0
9 6 -1 0
7 -2 -4 0
-10 -2 -1 0
9 -10 -8 0
4 -10 -6 0
10 3 -4 0
3 5 4 0
-3 6 -1 0
-7 8 5 0
-6 3 -5 0
-4 7 -1 0
-8 2 5 0
-7 -2 3 0
3 -6 7 0
-9 2 7 0
-6 8 -4 0
8 -6 -3 0
-9 2 6 0
-1 9 -5 0
8 10 6 0
10 9 6 0
-7 -2 5 0
-3 -7 8 0
7 -2 -3 0
3 -10 5 0
-10 -6 -4 0
7 4 9 0
-1 6 3 0
3 -9 8 0
